num_wann = 4
num_iter = 20000
conv_tol = 1e-8
conv_window = 3

begin unit_cell_cart
bohr
  -0.000000000   3.901537427  -3.901537427
   3.901540775   3.901536617  -0.000000811
   3.901540775   0.000000811  -3.901536617
end unit_cell_cart

begin atoms_frac
mg       0.500000000   0.000000000   0.000000000
o        0.000000000   0.500000000   0.500000000
end atoms_frac

begin projections
random
end projections

search_shells = 24
kmesh_tol = 1d-3
mp_grid : 4 4 4

begin kpoints
    0.000000000000000    0.000000000000000    0.000000000000000    0.0156250000
    0.000000000000000   -0.000000000000000    0.250000000000000    0.0156250000
    0.000000000000000    0.000000000000000   -0.500000000000000    0.0156250000
    0.000000000000000    0.000000000000000   -0.250000000000000    0.0156250000
    0.000000000000000    0.250000000000000    0.000000000000000    0.0156250000
    0.000000000000000    0.250000000000000    0.250000000000000    0.0156250000
    0.000000000000000    0.250000000000000   -0.500000000000000    0.0156250000
    0.000000000000000    0.250000000000000   -0.250000000000000    0.0156250000
    0.000000000000000   -0.500000000000000    0.000000000000000    0.0156250000
    0.000000000000000   -0.500000000000000    0.250000000000000    0.0156250000
    0.000000000000000   -0.500000000000000   -0.500000000000000    0.0156250000
    0.000000000000000    0.500000000000000   -0.250000000000000    0.0156250000
    0.000000000000000   -0.250000000000000    0.000000000000000    0.0156250000
    0.000000000000000   -0.250000000000000    0.250000000000000    0.0156250000
    0.000000000000000   -0.250000000000000    0.500000000000000    0.0156250000
    0.000000000000000   -0.250000000000000   -0.250000000000000    0.0156250000
    0.250000000000000   -0.000000000000000   -0.000000000000000    0.0156250000
    0.250000000000000   -0.000000000000000    0.250000000000000    0.0156250000
    0.250000000000000    0.000000000000000   -0.500000000000000    0.0156250000
    0.250000000000000    0.000000000000000   -0.250000000000000    0.0156250000
    0.250000000000000    0.250000000000000   -0.000000000000000    0.0156250000
    0.250000000000000    0.250000000000000    0.250000000000000    0.0156250000
    0.250000000000000    0.250000000000000   -0.500000000000000    0.0156250000
    0.250000000000000    0.250000000000000   -0.250000000000000    0.0156250000
    0.250000000000000   -0.500000000000000    0.000000000000000    0.0156250000
    0.250000000000000   -0.500000000000000    0.250000000000000    0.0156250000
    0.250000000000000   -0.500000000000000   -0.500000000000000    0.0156250000
    0.250000000000000   -0.500000000000000   -0.250000000000000    0.0156250000
    0.250000000000000   -0.250000000000000    0.000000000000000    0.0156250000
    0.250000000000000   -0.250000000000000    0.250000000000000    0.0156250000
    0.250000000000000   -0.250000000000000   -0.500000000000000    0.0156250000
    0.250000000000000   -0.250000000000000   -0.250000000000000    0.0156250000
   -0.500000000000000    0.000000000000000    0.000000000000000    0.0156250000
   -0.500000000000000   -0.000000000000000    0.250000000000000    0.0156250000
   -0.500000000000000    0.000000000000000   -0.500000000000000    0.0156250000
    0.500000000000000    0.000000000000000   -0.250000000000000    0.0156250000
   -0.500000000000000    0.250000000000000   -0.000000000000000    0.0156250000
   -0.500000000000000    0.250000000000000    0.250000000000000    0.0156250000
   -0.500000000000000    0.250000000000000   -0.500000000000000    0.0156250000
   -0.500000000000000    0.250000000000000   -0.250000000000000    0.0156250000
   -0.500000000000000   -0.500000000000000    0.000000000000000    0.0156250000
   -0.500000000000000   -0.500000000000000    0.250000000000000    0.0156250000
   -0.500000000000000   -0.500000000000000   -0.500000000000000    0.0156250000
    0.500000000000000    0.500000000000000   -0.250000000000000    0.0156250000
    0.500000000000000   -0.250000000000000    0.000000000000000    0.0156250000
    0.500000000000000   -0.250000000000000    0.250000000000000    0.0156250000
    0.500000000000000   -0.250000000000000    0.500000000000000    0.0156250000
    0.500000000000000   -0.250000000000000   -0.250000000000000    0.0156250000
   -0.250000000000000    0.000000000000000    0.000000000000000    0.0156250000
   -0.250000000000000   -0.000000000000000    0.250000000000000    0.0156250000
   -0.250000000000000   -0.000000000000000    0.500000000000000    0.0156250000
   -0.250000000000000    0.000000000000000   -0.250000000000000    0.0156250000
   -0.250000000000000    0.250000000000000   -0.000000000000000    0.0156250000
   -0.250000000000000    0.250000000000000    0.250000000000000    0.0156250000
   -0.250000000000000    0.250000000000000    0.500000000000000    0.0156250000
   -0.250000000000000    0.250000000000000   -0.250000000000000    0.0156250000
   -0.250000000000000    0.500000000000000   -0.000000000000000    0.0156250000
   -0.250000000000000    0.500000000000000    0.250000000000000    0.0156250000
   -0.250000000000000    0.500000000000000    0.500000000000000    0.0156250000
   -0.250000000000000    0.500000000000000   -0.250000000000000    0.0156250000
   -0.250000000000000   -0.250000000000000    0.000000000000000    0.0156250000
   -0.250000000000000   -0.250000000000000    0.250000000000000    0.0156250000
   -0.250000000000000   -0.250000000000000    0.500000000000000    0.0156250000
   -0.250000000000000   -0.250000000000000   -0.250000000000000    0.0156250000
end kpoints

